8
2147483647 79 68 88 15 21 60 44 
79 2147483647 89 18 44 20 67 93 
68 89 2147483647 70 77 48 8 72 
88 18 70 2147483647 23 13 24 37 
15 44 77 23 2147483647 82 41 82 
21 20 48 13 82 2147483647 61 97 
60 67 8 24 41 61 2147483647 29 
44 93 72 37 82 97 29 2147483647 
